10
1 7
2 10
3 4
4 2
5 3
6 9
7 2
8 4
9 6
35
0 1 61
1 0 61
0 2 49
2 0 49
0 3 65
3 0 65
0 4 59
4 0 59
0 5 92
5 0 92
0 6 15
6 0 15
0 7 74
7 0 74
0 8 41
8 0 41
0 9 55
9 0 55
1 2 69
1 4 43
1 5 12
1 9 88
2 3 35
2 4 41
2 5 84
2 9 29
3 7 74
4 5 8
4 7 15
5 6 92
5 8 48
6 7 89
7 8 82
7 9 45
8 9 9
